/*********************************************
 * OPL 12.6.0.0 Data
 * Author: Adrian Rodriguez Bazaga, Pau Rodriguez Esmerats
 * Creation Date: 06/12/2017 at 23:02:53
 *********************************************/

nNurses=69;
maxConsec=2;
maxPresence=7;
maxHours=5;
minHours=1;
hours=24;
demand= [12 14 15 17 14 15 17 14 11 6 0 2 0 3 0 3 0 2 0 1 10 18 8 14  ];
